certificates/rado_a5_c294_N58.cnf
c Rad2 upper bound instance: x1 + 5*x2 - x3 = 294, interval [1,58]
p cnf 58 638
1 5 58 0
-1 -5 -58 0
2 6 58 0
-2 -6 -58 0
3 7 58 0
-3 -7 -58 0
4 8 58 0
-4 -8 -58 0
5 9 58 0
-5 -9 -58 0
1 10 57 0
-1 -10 -57 0
6 10 58 0
-6 -10 -58 0
2 11 57 0
-2 -11 -57 0
7 11 58 0
-7 -11 -58 0
3 12 57 0
-3 -12 -57 0
8 12 58 0
-8 -12 -58 0
4 13 57 0
-4 -13 -57 0
9 13 58 0
-9 -13 -58 0
5 14 57 0
-5 -14 -57 0
10 14 58 0
-10 -14 -58 0
1 15 56 0
-1 -15 -56 0
6 15 57 0
-6 -15 -57 0
11 15 58 0
-11 -15 -58 0
2 16 56 0
-2 -16 -56 0
7 16 57 0
-7 -16 -57 0
12 16 58 0
-12 -16 -58 0
3 17 56 0
-3 -17 -56 0
8 17 57 0
-8 -17 -57 0
13 17 58 0
-13 -17 -58 0
4 18 56 0
-4 -18 -56 0
9 18 57 0
-9 -18 -57 0
14 18 58 0
-14 -18 -58 0
5 19 56 0
-5 -19 -56 0
10 19 57 0
-10 -19 -57 0
15 19 58 0
-15 -19 -58 0
1 20 55 0
-1 -20 -55 0
6 20 56 0
-6 -20 -56 0
11 20 57 0
-11 -20 -57 0
16 20 58 0
-16 -20 -58 0
2 21 55 0
-2 -21 -55 0
7 21 56 0
-7 -21 -56 0
12 21 57 0
-12 -21 -57 0
17 21 58 0
-17 -21 -58 0
3 22 55 0
-3 -22 -55 0
8 22 56 0
-8 -22 -56 0
13 22 57 0
-13 -22 -57 0
18 22 58 0
-18 -22 -58 0
4 23 55 0
-4 -23 -55 0
9 23 56 0
-9 -23 -56 0
14 23 57 0
-14 -23 -57 0
19 23 58 0
-19 -23 -58 0
5 24 55 0
-5 -24 -55 0
10 24 56 0
-10 -24 -56 0
15 24 57 0
-15 -24 -57 0
20 24 58 0
-20 -24 -58 0
1 25 54 0
-1 -25 -54 0
6 25 55 0
-6 -25 -55 0
11 25 56 0
-11 -25 -56 0
16 25 57 0
-16 -25 -57 0
21 25 58 0
-21 -25 -58 0
2 26 54 0
-2 -26 -54 0
7 26 55 0
-7 -26 -55 0
12 26 56 0
-12 -26 -56 0
17 26 57 0
-17 -26 -57 0
22 26 58 0
-22 -26 -58 0
3 27 54 0
-3 -27 -54 0
8 27 55 0
-8 -27 -55 0
13 27 56 0
-13 -27 -56 0
18 27 57 0
-18 -27 -57 0
23 27 58 0
-23 -27 -58 0
4 28 54 0
-4 -28 -54 0
9 28 55 0
-9 -28 -55 0
14 28 56 0
-14 -28 -56 0
19 28 57 0
-19 -28 -57 0
24 28 58 0
-24 -28 -58 0
5 29 54 0
-5 -29 -54 0
10 29 55 0
-10 -29 -55 0
15 29 56 0
-15 -29 -56 0
20 29 57 0
-20 -29 -57 0
25 29 58 0
-25 -29 -58 0
1 30 53 0
-1 -30 -53 0
6 30 54 0
-6 -30 -54 0
11 30 55 0
-11 -30 -55 0
16 30 56 0
-16 -30 -56 0
21 30 57 0
-21 -30 -57 0
26 30 58 0
-26 -30 -58 0
2 31 53 0
-2 -31 -53 0
7 31 54 0
-7 -31 -54 0
12 31 55 0
-12 -31 -55 0
17 31 56 0
-17 -31 -56 0
22 31 57 0
-22 -31 -57 0
27 31 58 0
-27 -31 -58 0
3 32 53 0
-3 -32 -53 0
8 32 54 0
-8 -32 -54 0
13 32 55 0
-13 -32 -55 0
18 32 56 0
-18 -32 -56 0
23 32 57 0
-23 -32 -57 0
28 32 58 0
-28 -32 -58 0
4 33 53 0
-4 -33 -53 0
9 33 54 0
-9 -33 -54 0
14 33 55 0
-14 -33 -55 0
19 33 56 0
-19 -33 -56 0
24 33 57 0
-24 -33 -57 0
29 33 58 0
-29 -33 -58 0
5 34 53 0
-5 -34 -53 0
10 34 54 0
-10 -34 -54 0
15 34 55 0
-15 -34 -55 0
20 34 56 0
-20 -34 -56 0
25 34 57 0
-25 -34 -57 0
30 34 58 0
-30 -34 -58 0
1 35 52 0
-1 -35 -52 0
6 35 53 0
-6 -35 -53 0
11 35 54 0
-11 -35 -54 0
16 35 55 0
-16 -35 -55 0
21 35 56 0
-21 -35 -56 0
26 35 57 0
-26 -35 -57 0
31 35 58 0
-31 -35 -58 0
2 36 52 0
-2 -36 -52 0
7 36 53 0
-7 -36 -53 0
12 36 54 0
-12 -36 -54 0
17 36 55 0
-17 -36 -55 0
22 36 56 0
-22 -36 -56 0
27 36 57 0
-27 -36 -57 0
32 36 58 0
-32 -36 -58 0
3 37 52 0
-3 -37 -52 0
8 37 53 0
-8 -37 -53 0
13 37 54 0
-13 -37 -54 0
18 37 55 0
-18 -37 -55 0
23 37 56 0
-23 -37 -56 0
28 37 57 0
-28 -37 -57 0
33 37 58 0
-33 -37 -58 0
4 38 52 0
-4 -38 -52 0
9 38 53 0
-9 -38 -53 0
14 38 54 0
-14 -38 -54 0
19 38 55 0
-19 -38 -55 0
24 38 56 0
-24 -38 -56 0
29 38 57 0
-29 -38 -57 0
34 38 58 0
-34 -38 -58 0
5 39 52 0
-5 -39 -52 0
10 39 53 0
-10 -39 -53 0
15 39 54 0
-15 -39 -54 0
20 39 55 0
-20 -39 -55 0
25 39 56 0
-25 -39 -56 0
30 39 57 0
-30 -39 -57 0
35 39 58 0
-35 -39 -58 0
1 40 51 0
-1 -40 -51 0
6 40 52 0
-6 -40 -52 0
11 40 53 0
-11 -40 -53 0
16 40 54 0
-16 -40 -54 0
21 40 55 0
-21 -40 -55 0
26 40 56 0
-26 -40 -56 0
31 40 57 0
-31 -40 -57 0
36 40 58 0
-36 -40 -58 0
2 41 51 0
-2 -41 -51 0
7 41 52 0
-7 -41 -52 0
12 41 53 0
-12 -41 -53 0
17 41 54 0
-17 -41 -54 0
22 41 55 0
-22 -41 -55 0
27 41 56 0
-27 -41 -56 0
32 41 57 0
-32 -41 -57 0
37 41 58 0
-37 -41 -58 0
3 42 51 0
-3 -42 -51 0
8 42 52 0
-8 -42 -52 0
13 42 53 0
-13 -42 -53 0
18 42 54 0
-18 -42 -54 0
23 42 55 0
-23 -42 -55 0
28 42 56 0
-28 -42 -56 0
33 42 57 0
-33 -42 -57 0
38 42 58 0
-38 -42 -58 0
4 43 51 0
-4 -43 -51 0
9 43 52 0
-9 -43 -52 0
14 43 53 0
-14 -43 -53 0
19 43 54 0
-19 -43 -54 0
24 43 55 0
-24 -43 -55 0
29 43 56 0
-29 -43 -56 0
34 43 57 0
-34 -43 -57 0
39 43 58 0
-39 -43 -58 0
5 44 51 0
-5 -44 -51 0
10 44 52 0
-10 -44 -52 0
15 44 53 0
-15 -44 -53 0
20 44 54 0
-20 -44 -54 0
25 44 55 0
-25 -44 -55 0
30 44 56 0
-30 -44 -56 0
35 44 57 0
-35 -44 -57 0
40 44 58 0
-40 -44 -58 0
1 45 50 0
-1 -45 -50 0
6 45 51 0
-6 -45 -51 0
11 45 52 0
-11 -45 -52 0
16 45 53 0
-16 -45 -53 0
21 45 54 0
-21 -45 -54 0
26 45 55 0
-26 -45 -55 0
31 45 56 0
-31 -45 -56 0
36 45 57 0
-36 -45 -57 0
41 45 58 0
-41 -45 -58 0
2 46 50 0
-2 -46 -50 0
7 46 51 0
-7 -46 -51 0
12 46 52 0
-12 -46 -52 0
17 46 53 0
-17 -46 -53 0
22 46 54 0
-22 -46 -54 0
27 46 55 0
-27 -46 -55 0
32 46 56 0
-32 -46 -56 0
37 46 57 0
-37 -46 -57 0
42 46 58 0
-42 -46 -58 0
3 47 50 0
-3 -47 -50 0
8 47 51 0
-8 -47 -51 0
13 47 52 0
-13 -47 -52 0
18 47 53 0
-18 -47 -53 0
23 47 54 0
-23 -47 -54 0
28 47 55 0
-28 -47 -55 0
33 47 56 0
-33 -47 -56 0
38 47 57 0
-38 -47 -57 0
43 47 58 0
-43 -47 -58 0
4 48 50 0
-4 -48 -50 0
9 48 51 0
-9 -48 -51 0
14 48 52 0
-14 -48 -52 0
19 48 53 0
-19 -48 -53 0
24 48 54 0
-24 -48 -54 0
29 48 55 0
-29 -48 -55 0
34 48 56 0
-34 -48 -56 0
39 48 57 0
-39 -48 -57 0
44 48 58 0
-44 -48 -58 0
5 49 50 0
-5 -49 -50 0
10 49 51 0
-10 -49 -51 0
15 49 52 0
-15 -49 -52 0
20 49 53 0
-20 -49 -53 0
25 49 54 0
-25 -49 -54 0
30 49 55 0
-30 -49 -55 0
35 49 56 0
-35 -49 -56 0
40 49 57 0
-40 -49 -57 0
45 49 58 0
-45 -49 -58 0
1 49 50 0
-1 -49 -50 0
6 50 0
-6 -50 0
11 50 51 0
-11 -50 -51 0
16 50 52 0
-16 -50 -52 0
21 50 53 0
-21 -50 -53 0
26 50 54 0
-26 -50 -54 0
31 50 55 0
-31 -50 -55 0
36 50 56 0
-36 -50 -56 0
41 50 57 0
-41 -50 -57 0
46 50 58 0
-46 -50 -58 0
2 49 51 0
-2 -49 -51 0
7 50 51 0
-7 -50 -51 0
12 51 0
-12 -51 0
17 51 52 0
-17 -51 -52 0
22 51 53 0
-22 -51 -53 0
27 51 54 0
-27 -51 -54 0
32 51 55 0
-32 -51 -55 0
37 51 56 0
-37 -51 -56 0
42 51 57 0
-42 -51 -57 0
47 51 58 0
-47 -51 -58 0
3 49 52 0
-3 -49 -52 0
8 50 52 0
-8 -50 -52 0
13 51 52 0
-13 -51 -52 0
18 52 0
-18 -52 0
23 52 53 0
-23 -52 -53 0
28 52 54 0
-28 -52 -54 0
33 52 55 0
-33 -52 -55 0
38 52 56 0
-38 -52 -56 0
43 52 57 0
-43 -52 -57 0
48 52 58 0
-48 -52 -58 0
4 49 53 0
-4 -49 -53 0
9 50 53 0
-9 -50 -53 0
14 51 53 0
-14 -51 -53 0
19 52 53 0
-19 -52 -53 0
24 53 0
-24 -53 0
29 53 54 0
-29 -53 -54 0
34 53 55 0
-34 -53 -55 0
39 53 56 0
-39 -53 -56 0
44 53 57 0
-44 -53 -57 0
49 53 58 0
-49 -53 -58 0
5 49 54 0
-5 -49 -54 0
10 50 54 0
-10 -50 -54 0
15 51 54 0
-15 -51 -54 0
20 52 54 0
-20 -52 -54 0
25 53 54 0
-25 -53 -54 0
30 54 0
-30 -54 0
35 54 55 0
-35 -54 -55 0
40 54 56 0
-40 -54 -56 0
45 54 57 0
-45 -54 -57 0
50 54 58 0
-50 -54 -58 0
1 48 55 0
-1 -48 -55 0
6 49 55 0
-6 -49 -55 0
11 50 55 0
-11 -50 -55 0
16 51 55 0
-16 -51 -55 0
21 52 55 0
-21 -52 -55 0
26 53 55 0
-26 -53 -55 0
31 54 55 0
-31 -54 -55 0
36 55 0
-36 -55 0
41 55 56 0
-41 -55 -56 0
46 55 57 0
-46 -55 -57 0
51 55 58 0
-51 -55 -58 0
2 48 56 0
-2 -48 -56 0
7 49 56 0
-7 -49 -56 0
12 50 56 0
-12 -50 -56 0
17 51 56 0
-17 -51 -56 0
22 52 56 0
-22 -52 -56 0
27 53 56 0
-27 -53 -56 0
32 54 56 0
-32 -54 -56 0
37 55 56 0
-37 -55 -56 0
42 56 0
-42 -56 0
47 56 57 0
-47 -56 -57 0
52 56 58 0
-52 -56 -58 0
3 48 57 0
-3 -48 -57 0
8 49 57 0
-8 -49 -57 0
13 50 57 0
-13 -50 -57 0
18 51 57 0
-18 -51 -57 0
23 52 57 0
-23 -52 -57 0
28 53 57 0
-28 -53 -57 0
33 54 57 0
-33 -54 -57 0
38 55 57 0
-38 -55 -57 0
43 56 57 0
-43 -56 -57 0
48 57 0
-48 -57 0
53 57 58 0
-53 -57 -58 0
4 48 58 0
-4 -48 -58 0
9 49 58 0
-9 -49 -58 0
14 50 58 0
-14 -50 -58 0
19 51 58 0
-19 -51 -58 0
24 52 58 0
-24 -52 -58 0
29 53 58 0
-29 -53 -58 0
34 54 58 0
-34 -54 -58 0
39 55 58 0
-39 -55 -58 0
44 56 58 0
-44 -56 -58 0
49 57 58 0
-49 -57 -58 0
54 58 0
-54 -58 0
