certificates/rado_a5_c294_N58.drat
-58 0
54 0
-30 0
26 0
34 0
-2 0
-50 0
-10 0
6 0
46 0
14 0
-22 0
-38 0
18 0
42 0
0
